20
1 2
1 4
1 9
1 15
1 17
1 20
2 5
2 8
2 11
2 12
2 13
2 14
2 15
2 16
3 4
3 5
3 9
3 10
3 11
3 12
3 13
3 15
4 7
4 8
4 11
4 12
4 14
4 15
4 16
4 18
4 19
5 7
5 8
5 14
5 15
5 18
6 7
6 8
6 9
6 11
6 16
6 17
6 18
7 8
7 10
7 11
7 12
7 13
7 14
7 15
7 17
7 18
8 12
8 14
8 17
8 19
9 10
9 12
9 13
9 15
9 16
9 18
10 11
10 13
10 14
10 17
10 18
10 19
11 14
11 15
11 16
11 18
12 14
12 15
12 18
12 19
12 20
13 17
13 18
13 20
14 15
14 16
14 20
15 16
15 19
15 20
16 17
16 19
17 18
17 19
18 20
